Solving original (integer) problem with strategy gdp.hull_exact...
--- Job model.gms Start 02/16/26 01:39:08 52.2.0 d8e408be LEX-LEG x86 64bit/Linux
--- Applying:
    /package/gams/52.2/gmsprmun.txt
--- GAMS Parameters defined
    Input /local/scratch/a/sgusev/repos/k_means/data/gams_scip_gdp.hull_exact/no_mode/2026-02-16_01-39-08/original/model.gms
    Output /local/scratch/a/sgusev/repos/k_means/data/gams_scip_gdp.hull_exact/no_mode/2026-02-16_01-39-08/original/output.lst
    ScrDir /local/scratch/a/sgusev/repos/k_means/data/gams_scip_gdp.hull_exact/no_mode/2026-02-16_01-39-08/original/225a/
    SysDir /package/gams/52.2/
    CurDir /local/scratch/a/sgusev/repos/k_means/data/gams_scip_gdp.hull_exact/no_mode/2026-02-16_01-39-08/original/
    LogOption 3
    AppendLog 1
Licensee: David Bernal / SECQUOIA Research Group         G251008+0003Ac-GEN
          Purdue University, Davidson School of Chemical EngineeringDCE4838
          225a/gamslice.dat
          5a82958a-fbca-4a23
          node:66820903 mem:995 cores:48 ipport:44283 v:2                  
          Evaluation license: Not for commercial or production use
          The time-limited license stops working on : Jun 30, 2027
System information: 48 physical cores and 995 Gb physical memory detected
GAMS 52.2.0   Copyright (C) 1987-2025 GAMS Development. All rights reserved
--- Starting compilation
--- model.gms(3011) 2 Mb
--- $echo File /local/scratch/a/sgusev/repos/k_means/data/gams_scip_gdp.hull_exact/no_mode/2026-02-16_01-39-08/original/scip.opt
--- model.gms(4434) 2 Mb
--- Starting execution: elapsed 0:00:00.017
--- model.gms(3021) 3 Mb
--- Generating MINLP model GAMS_MODEL
--- model.gms(3025) 5 Mb
---   914 rows  442 columns  2,217 non-zeroes
---   1,456 nl-code  260 nl-non-zeroes
---   52 discrete-columns
--- Range statistics (absolute non-zero finite values)
--- RHS       [min, max] : [ 1.000E+00, 1.000E+00] - Zero values observed as well
--- Bound     [min, max] : [ 1.000E+00, 7.800E+01] - Zero values observed as well
--- Matrix    [min, max] : [ 1.000E+00, 7.800E+01] - Zero values observed as well
--- model.gms(3025) 3 Mb
--- Executing SCIP (Solvelink=5): elapsed 0:00:00.022

SCIP             52.2.0 d8e408be Dec 8, 2025           LEG x86 64bit/Linux    
SCIP version 9.2.4 (a94f778ac8)
Copyright (c) 2002-2025 Zuse Institute Berlin (ZIB)

External libraries: 
  CPLEX 22.1.2.0       Linear Programming Solver developed by IBM (www.cplex.com)
  CppAD 20180000.0     Algorithmic Differentiation of C++ algorithms developed by B. Bell (github.com/coin-or/CppAD)
  PaPILO 2.4.4         parallel presolve for integer and linear optimization (github.com/scipopt/papilo) (built with TBB) [GitHash: 7c826d50]
  Nauty 2.8.9          Computing Graph Automorphism Groups by Brendan D. McKay (users.cecs.anu.edu.au/~bdm/nauty)
  sassy 1.1            Symmetry preprocessor by Markus Anders (github.com/markusa4/sassy)
  Ipopt 3.14.19        Interior Point Optimizer developed by A. Waechter et.al. (github.com/coin-or/Ipopt)

reading option file /local/scratch/a/sgusev/repos/k_means/data/gams_scip_gdp.hull_exact/no_mode/2026-02-16_01-39-08/original/scip.opt
non-default parameter settings:
limits/time = 300
limits/gap = 1e-06
limits/absgap = 1e-10
lp/threads = 1
misc/printreason = FALSE
numerics/dualfeastol = 1e-06
parallel/maxnthreads = 1
nlpi/ipopt/linear_solver = "ma27"
nlpi/ipopt/linear_system_scaling = "mc19"

original problem has 441 variables (52 bin, 0 int, 389 cont) and 913 constraints

all 1 solutions given by solution candidate storage are infeasible

presolving:
(round 1, fast)       13 del vars, 0 del conss, 0 add conss, 0 chg bounds, 0 chg sides, 0 chg coeffs, 0 upgd conss, 0 impls, 13 clqs
(round 2, fast)       13 del vars, 0 del conss, 0 add conss, 0 chg bounds, 13 chg sides, 0 chg coeffs, 0 upgd conss, 0 impls, 13 clqs
(round 3, exhaustive) 13 del vars, 0 del conss, 0 add conss, 0 chg bounds, 13 chg sides, 0 chg coeffs, 689 upgd conss, 0 impls, 13 clqs
   (0.0s) probing cycle finished: starting next cycle
   (0.0s) symmetry computation started: requiring (bin +, int +, cont +), (fixed: bin -, int -, cont -)
   (0.0s) no symmetry present (symcode time: 0.00)
presolving (4 rounds: 4 fast, 2 medium, 2 exhaustive):
 13 deleted vars, 0 deleted constraints, 0 added constraints, 0 tightened bounds, 0 added holes, 13 changed sides, 0 changed coefficients
 1768 implications, 13 cliques
presolved problem has 428 variables (52 bin, 0 int, 0 impl, 376 cont) and 913 constraints
    676 constraints of type <varbound>
     13 constraints of type <setppc>
    172 constraints of type <linear>
     52 constraints of type <nonlinear>
Presolving Time: 0.03

 time | node  | left  |LP iter|LP it/n|mem/heur|mdpt |vars |cons |rows |cuts |sepa|confs|strbr|  dualbound   | primalbound  |  gap   | compl. 
  0.1s|     1 |     0 |   434 |     - |  9955k |   0 | 844 | 913 |1433 |   0 |  0 |   0 |   0 | 0.000000e+00 |      --      |    Inf | unknown
p 0.1s|     1 |     0 |   646 |     - |  clique|   0 | 844 | 913 |1433 |   0 |  0 |   0 |   0 | 0.000000e+00 | 1.128325e+01 |    Inf | unknown
  0.1s|     1 |     0 |   849 |     - |    11M |   0 | 844 | 913 |1530 |  97 |  1 |   0 |   0 | 0.000000e+00 | 1.128325e+01 |    Inf | unknown
  0.1s|     1 |     0 |   849 |     - |    11M |   0 | 844 | 913 |1517 |  97 |  1 |   0 |   0 | 0.000000e+00 | 1.128325e+01 |    Inf | unknown
  0.1s|     1 |     0 |  1003 |     - |    11M |   0 | 844 | 913 |1596 | 176 |  2 |   0 |   0 | 0.000000e+00 | 1.128325e+01 |    Inf | unknown
  0.2s|     1 |     0 |  1115 |     - |    11M |   0 | 844 | 913 |1672 | 252 |  3 |   0 |   0 | 0.000000e+00 | 1.128325e+01 |    Inf | unknown
  0.2s|     1 |     0 |  1242 |     - |    11M |   0 | 844 | 913 |1748 | 328 |  4 |   0 |   0 | 0.000000e+00 | 1.128325e+01 |    Inf | unknown
  0.2s|     1 |     0 |  1376 |     - |    12M |   0 | 844 | 913 |1822 | 402 |  5 |   0 |   0 | 0.000000e+00 | 1.128325e+01 |    Inf | unknown
  0.3s|     1 |     0 |  1472 |     - |    12M |   0 | 844 | 913 |1884 | 464 |  6 |   0 |   0 | 0.000000e+00 | 1.128325e+01 |    Inf | unknown
  0.3s|     1 |     0 |  1619 |     - |    12M |   0 | 844 | 913 |1953 | 533 |  7 |   0 |   0 | 0.000000e+00 | 1.128325e+01 |    Inf | unknown
  0.3s|     1 |     0 |  1733 |     - |    14M |   0 | 844 | 913 |2012 | 592 |  8 |   0 |   0 | 0.000000e+00 | 1.128325e+01 |    Inf | unknown
  0.4s|     1 |     0 |  1797 |     - |    14M |   0 | 844 | 913 |2056 | 636 |  9 |   0 |   0 | 0.000000e+00 | 1.128325e+01 |    Inf | unknown
  0.4s|     1 |     0 |  1869 |     - |    14M |   0 | 844 | 913 |2091 | 671 | 10 |   0 |   0 | 0.000000e+00 | 1.128325e+01 |    Inf | unknown
  0.5s|     1 |     0 |  1956 |     - |    15M |   0 | 844 | 913 |2128 | 708 | 11 |   0 |   0 | 0.000000e+00 | 1.128325e+01 |    Inf | unknown
  0.5s|     1 |     0 |  2031 |     - |    15M |   0 | 844 | 913 |2171 | 751 | 12 |   0 |   0 | 0.000000e+00 | 1.128325e+01 |    Inf | unknown
 time | node  | left  |LP iter|LP it/n|mem/heur|mdpt |vars |cons |rows |cuts |sepa|confs|strbr|  dualbound   | primalbound  |  gap   | compl. 
L 1.7s|     1 |     0 |  9948 |     - |    alns|   0 | 844 | 900 |2171 | 751 | 12 |   0 |   0 | 0.000000e+00 | 1.023815e+01 |    Inf | unknown
L 1.7s|     1 |     0 |  9948 |     - |    alns|   0 | 844 | 900 |2171 | 751 | 12 |   0 |   0 | 0.000000e+00 | 1.023815e+01 |    Inf | unknown
L 1.7s|     1 |     0 |  9948 |     - |    alns|   0 | 844 | 900 |2171 | 751 | 12 |   0 |   0 | 0.000000e+00 | 9.863993e+00 |    Inf | unknown
  2.1s|     1 |     0 |  9948 |     - |    17M |   0 | 844 | 900 |2171 | 751 | 12 |   0 |   0 | 0.000000e+00 | 9.863993e+00 |    Inf | unknown
  2.2s|     1 |     0 | 10039 |     - |    17M |   0 | 844 | 900 |2212 | 792 | 13 |   0 |   0 | 0.000000e+00 | 9.863993e+00 |    Inf | unknown
  2.2s|     1 |     0 | 10078 |     - |    17M |   0 | 844 | 900 |2231 | 811 | 14 |   0 |   0 | 0.000000e+00 | 9.863993e+00 |    Inf | unknown
  2.3s|     1 |     2 | 10078 |     - |    17M |   0 | 844 | 900 |2231 | 811 | 14 |   0 |  28 | 0.000000e+00 | 9.863993e+00 |    Inf | unknown
d 2.7s|    14 |    15 | 13033 | 843.5 |pscostdi|  11 | 844 | 900 |1724 |1938 |  9 |   0 |  84 | 0.000000e+00 | 8.443214e+00 |    Inf | unknown
r 2.9s|    22 |    23 | 14766 | 604.7 |intshift|  11 | 844 | 900 |1444 |2423 |  2 |   0 | 123 | 0.000000e+00 | 7.535098e+00 |    Inf | unknown
d 3.3s|    48 |    49 | 20091 | 383.5 |veclendi|  11 | 844 | 900 |1545 |4711 |  2 |   0 | 166 | 0.000000e+00 | 7.366868e+00 |    Inf | unknown
o 3.6s|    64 |    65 | 23045 | 333.0 |rootsold|  11 | 844 | 900 |1684 |6042 |  8 |   0 | 187 | 0.000000e+00 | 7.095523e+00 |    Inf | unknown
  4.0s|   100 |   101 | 28152 | 263.5 |    26M |  19 | 844 | 900 |1663 |8681 |  2 |   0 | 208 | 0.000000e+00 | 7.095523e+00 |    Inf | unknown
L 4.8s|   164 |   165 | 38777 | 225.2 |    gins|  19 | 844 | 900 |1721 |  13k|  8 |   0 | 222 | 0.000000e+00 | 6.908983e+00 |    Inf | unknown
L 4.8s|   164 |   165 | 38777 | 225.2 |    gins|  19 | 844 | 900 |1721 |  13k|  8 |   0 | 222 | 0.000000e+00 | 5.305905e+00 |    Inf | unknown
  5.5s|   200 |   201 | 46187 | 221.7 |    33M |  19 | 844 | 900 |1444 |  16k|  2 |   0 | 224 | 0.000000e+00 | 5.305905e+00 |    Inf | unknown
 time | node  | left  |LP iter|LP it/n|mem/heur|mdpt |vars |cons |rows |cuts |sepa|confs|strbr|  dualbound   | primalbound  |  gap   | compl. 
L 6.3s|   264 |   265 | 60289 | 221.4 |    gins|  19 | 844 | 900 |1534 |  21k|  2 |   2 | 230 | 0.000000e+00 | 4.953515e+00 |    Inf | unknown
  6.8s|   300 |   301 | 67419 | 218.6 |    38M |  21 | 844 | 900 |1717 |  24k|  6 |   3 | 232 | 0.000000e+00 | 4.953515e+00 |    Inf | unknown
L 8.0s|   389 |   360 | 88048 | 221.6 |    gins|  22 | 844 | 900 |1580 |  33k|  6 |   6 | 233 | 0.000000e+00 | 4.287197e+00 |    Inf | unknown
  8.1s|   400 |   367 | 89589 | 219.4 |    43M |  22 | 844 | 900 |1688 |  34k|  7 |   6 | 233 | 0.000000e+00 | 4.287197e+00 |    Inf | unknown
L 8.7s|   444 |   401 | 98309 | 217.2 |    alns|  22 | 844 | 900 |1833 |  37k|  6 |  17 | 236 | 0.000000e+00 | 4.161036e+00 |    Inf | unknown
  9.2s|   500 |   433 |108757 | 213.8 |    49M |  22 | 844 | 900 |1772 |  42k|  7 |  20 | 237 | 0.000000e+00 | 4.161036e+00 |    Inf | unknown
 10.2s|   600 |   497 |123775 | 203.2 |    52M |  22 | 844 | 900 |1788 |  49k|  7 |  22 | 238 | 0.000000e+00 | 4.161036e+00 |    Inf | unknown
 11.3s|   700 |   563 |139113 | 196.1 |    55M |  22 | 844 | 900 |1719 |  56k|  6 |  33 | 245 | 0.000000e+00 | 4.161036e+00 |    Inf |   4.96%
*12.0s|   790 |   386 |148077 | 185.1 |    LP  |  25 | 844 | 900 |1941 |  62k|  8 |  38 | 249 | 0.000000e+00 | 2.546284e+00 |    Inf |   8.85%
 12.1s|   800 |   390 |149383 | 184.4 |    57M |  25 | 844 | 900 |1702 |  62k|  2 |  38 | 249 | 0.000000e+00 | 2.546284e+00 |    Inf |   8.85%
 13.0s|   900 |   434 |163392 | 179.4 |    58M |  26 | 844 | 900 |1846 |  68k|  0 |  43 | 252 | 0.000000e+00 | 2.546284e+00 |    Inf |   9.49%
 14.0s|  1000 |   478 |176803 | 174.9 |    59M |  29 | 844 | 900 |1841 |  73k|  2 |  47 | 253 | 0.000000e+00 | 2.546284e+00 |    Inf |   9.51%
 14.9s|  1100 |   520 |190206 | 171.2 |    60M |  29 | 844 | 900 |1711 |  78k|  1 |  50 | 260 | 0.000000e+00 | 2.546284e+00 |    Inf |   9.63%
 15.8s|  1200 |   566 |201888 | 166.7 |    62M |  32 | 844 | 900 |1926 |  84k|  2 |  54 | 262 | 0.000000e+00 | 2.546284e+00 |    Inf |   9.68%
 16.4s|  1300 |   586 |211033 | 160.9 |    63M |  33 | 844 | 900 |1734 |  88k|  2 |  57 | 266 | 0.000000e+00 | 2.546284e+00 |    Inf |   9.70%
 time | node  | left  |LP iter|LP it/n|mem/heur|mdpt |vars |cons |rows |cuts |sepa|confs|strbr|  dualbound   | primalbound  |  gap   | compl. 
 17.3s|  1400 |   622 |225485 | 159.7 |    66M |  33 | 844 | 900 |1641 |  94k|  6 |  64 | 272 | 0.000000e+00 | 2.546284e+00 |    Inf |   9.80%
 18.0s|  1500 |   642 |238267 | 157.6 |    68M |  33 | 844 | 900 |1671 |  99k|  0 |  76 | 276 | 0.000000e+00 | 2.546284e+00 |    Inf |  10.31%
 18.8s|  1600 |   678 |251447 | 156.0 |    70M |  33 | 844 | 900 |1748 | 104k|  1 |  83 | 284 | 0.000000e+00 | 2.546284e+00 |    Inf |  11.85%
 19.7s|  1700 |   720 |266502 | 155.6 |    71M |  33 | 844 | 900 |1740 | 110k|  2 |  89 | 286 | 0.000000e+00 | 2.546284e+00 |    Inf |  12.01%
 20.5s|  1800 |   750 |278664 | 153.7 |    74M |  33 | 844 | 901 |1690 | 115k|  1 | 101 | 294 | 0.000000e+00 | 2.546284e+00 |    Inf |  12.29%
 21.3s|  1900 |   792 |291511 | 152.4 |    75M |  33 | 844 | 901 |1804 | 121k|  7 | 109 | 313 | 0.000000e+00 | 2.546284e+00 |    Inf |  12.43%
 22.2s|  2000 |   834 |306269 | 152.2 |    77M |  33 | 844 | 901 |1771 | 127k|  0 | 110 | 326 | 0.000000e+00 | 2.546284e+00 |    Inf |  12.46%
 23.1s|  2100 |   878 |320707 | 151.8 |    79M |  33 | 844 | 902 |1735 | 133k|  2 | 118 | 333 | 0.000000e+00 | 2.546284e+00 |    Inf |  12.52%
 24.1s|  2200 |   930 |337394 | 152.5 |    82M |  33 | 844 | 902 |1825 | 140k|  2 | 129 | 341 | 0.000000e+00 | 2.546284e+00 |    Inf |  12.56%
 24.9s|  2300 |   966 |348504 | 150.7 |    82M |  33 | 844 | 902 |1782 | 144k|  6 | 136 | 360 | 0.000000e+00 | 2.546284e+00 |    Inf |  12.57%
 25.8s|  2400 |  1006 |362157 | 150.1 |    83M |  33 | 844 | 902 |1794 | 150k|  0 | 142 | 368 | 0.000000e+00 | 2.546284e+00 |    Inf |  12.60%
 26.8s|  2500 |  1054 |379697 | 151.1 |    87M |  33 | 844 | 902 |1833 | 157k|  0 | 150 | 375 | 0.000000e+00 | 2.546284e+00 |    Inf |  12.63%
 27.6s|  2600 |  1102 |391447 | 149.8 |    88M |  33 | 844 | 902 |1876 | 162k|  7 | 152 | 380 | 0.000000e+00 | 2.546284e+00 |    Inf |  12.63%
 28.1s|  2700 |  1120 |398642 | 146.9 |    90M |  33 | 844 | 902 |1749 | 165k|  0 | 156 | 383 | 0.000000e+00 | 2.546284e+00 |    Inf |  12.64%
 28.8s|  2800 |  1152 |408892 | 145.3 |    91M |  35 | 844 | 902 |2021 | 170k|  6 | 162 | 391 | 0.000000e+00 | 2.546284e+00 |    Inf |  12.66%
 time | node  | left  |LP iter|LP it/n|mem/heur|mdpt |vars |cons |rows |cuts |sepa|confs|strbr|  dualbound   | primalbound  |  gap   | compl. 
 29.5s|  2900 |  1176 |418971 | 143.8 |    91M |  35 | 844 | 902 |1793 | 174k|  1 | 170 | 399 | 0.000000e+00 | 2.546284e+00 |    Inf |  12.70%
*29.8s|  2950 |  1170 |422484 | 142.6 |    LP  |  35 | 844 | 902 |2068 | 176k|  9 | 172 | 399 | 0.000000e+00 | 2.525552e+00 |    Inf |  12.74%
 30.2s|  3000 |  1192 |430378 | 142.8 |    93M |  36 | 844 | 902 |1900 | 179k|  3 | 177 | 402 | 0.000000e+00 | 2.525552e+00 |    Inf |  13.17%
 30.8s|  3100 |  1208 |439228 | 141.1 |    94M |  36 | 844 | 902 |1916 | 183k|  0 | 184 | 409 | 0.000000e+00 | 2.525552e+00 |    Inf |  13.81%
 31.6s|  3200 |  1226 |452008 | 140.7 |    95M |  36 | 844 | 902 |1834 | 188k|  6 | 191 | 415 | 0.000000e+00 | 2.525552e+00 |    Inf |  15.43%
 32.2s|  3300 |  1246 |460441 | 138.9 |    96M |  36 | 844 | 902 |1872 | 192k|  5 | 197 | 422 | 0.000000e+00 | 2.525552e+00 |    Inf |  15.66%
 32.7s|  3400 |  1260 |466624 | 136.7 |    96M |  36 | 844 | 902 |1771 | 195k|  1 | 203 | 423 | 0.000000e+00 | 2.525552e+00 |    Inf |  16.06%
 33.3s|  3500 |  1282 |475587 | 135.3 |    97M |  36 | 844 | 902 |1896 | 199k|  1 | 208 | 425 | 0.000000e+00 | 2.525552e+00 |    Inf |  16.84%
 33.9s|  3600 |  1292 |485174 | 134.2 |    98M |  36 | 844 | 902 |1944 | 203k|  3 | 215 | 427 | 4.259358e-03 | 2.525552e+00 |  Large |  17.66%
 34.6s|  3700 |  1312 |496828 | 133.8 |   101M |  36 | 844 | 902 |1853 | 208k|  5 | 224 | 432 | 1.043680e-02 | 2.525552e+00 |  Large |  18.20%
*34.7s|  3724 |  1280 |497898 | 133.2 |    LP  |  36 | 844 | 902 |1978 | 208k|  8 | 224 | 433 | 1.043680e-02 | 2.503353e+00 |  Large |  18.62%
 35.2s|  3800 |  1296 |504743 | 132.3 |   101M |  36 | 844 | 902 |1907 | 211k|  7 | 236 | 436 | 3.311101e-02 | 2.503353e+00 |7460.48%|  18.93%
 35.8s|  3900 |  1306 |512382 | 130.9 |   101M |  36 | 844 | 902 |1796 | 215k|  6 | 250 | 444 | 6.802246e-02 | 2.503353e+00 |3580.19%|  19.97%
*35.8s|  3908 |  1230 |512850 | 130.7 |    LP  |  36 | 844 | 902 |2062 | 215k|  9 | 251 | 444 | 6.802246e-02 | 2.446175e+00 |3496.13%|  22.08%
 36.2s|  4000 |  1234 |518589 | 129.2 |   101M |  36 | 844 | 902 |1693 | 218k|  1 | 258 | 450 | 6.802805e-02 | 2.446175e+00 |3495.83%|  23.33%
 time | node  | left  |LP iter|LP it/n|mem/heur|mdpt |vars |cons |rows |cuts |sepa|confs|strbr|  dualbound   | primalbound  |  gap   | compl. 
 36.8s|  4100 |  1250 |526992 | 128.1 |   101M |  36 | 844 | 902 |1884 | 221k|  0 | 272 | 457 | 6.970401e-02 | 2.446175e+00 |3409.38%|  23.80%
 37.4s|  4200 |  1248 |534834 | 126.9 |   101M |  36 | 844 | 902 |1901 | 225k|  0 | 283 | 462 | 8.334911e-02 | 2.446175e+00 |2834.85%|  25.20%
 38.1s|  4300 |  1266 |545573 | 126.4 |   103M |  36 | 844 | 902 |1697 | 230k|  1 | 292 | 468 | 9.366333e-02 | 2.446175e+00 |2511.67%|  25.64%
 38.7s|  4400 |  1272 |552573 | 125.1 |   103M |  36 | 844 | 902 |1629 | 233k|  1 | 295 | 473 | 1.080252e-01 | 2.446175e+00 |2164.45%|  26.34%
 39.2s|  4500 |  1276 |561639 | 124.4 |   105M |  36 | 844 | 902 |1873 | 237k|  1 | 302 | 478 | 2.648108e-01 | 2.446175e+00 | 823.74%|  27.95%
 39.7s|  4600 |  1278 |567758 | 123.0 |   106M |  36 | 844 | 902 |1735 | 240k|  1 | 305 | 481 | 2.648417e-01 | 2.446175e+00 | 823.64%|  30.94%
 40.3s|  4700 |  1284 |574398 | 121.8 |   107M |  36 | 844 | 902 |1867 | 243k|  0 | 314 | 486 | 2.648430e-01 | 2.446175e+00 | 823.63%|  31.59%
 40.9s|  4800 |  1316 |584096 | 121.3 |   109M |  36 | 844 | 902 |1760 | 247k|  7 | 319 | 489 | 2.648487e-01 | 2.446175e+00 | 823.61%|  31.89%
 41.6s|  4900 |  1346 |591192 | 120.3 |   109M |  36 | 844 | 902 |1789 | 251k|  2 | 323 | 491 | 2.648489e-01 | 2.446175e+00 | 823.61%|  31.99%
 42.1s|  5000 |  1370 |599447 | 119.5 |   111M |  36 | 844 | 902 |1755 | 255k|  2 | 328 | 493 | 2.648501e-01 | 2.446175e+00 | 823.61%|  32.18%
 42.6s|  5100 |  1382 |606430 | 118.5 |   111M |  36 | 844 | 902 |2020 | 258k|  2 | 336 | 493 | 2.648507e-01 | 2.446175e+00 | 823.61%|  33.00%
 43.2s|  5200 |  1396 |614196 | 117.7 |   111M |  36 | 844 | 902 |1897 | 262k|  0 | 340 | 496 | 3.595078e-01 | 2.446175e+00 | 580.42%|  33.58%
 43.6s|  5300 |  1408 |619556 | 116.5 |   111M |  36 | 844 | 902 |1853 | 264k|  6 | 344 | 498 | 3.595078e-01 | 2.446175e+00 | 580.42%|  33.66%
 44.1s|  5400 |  1408 |625987 | 115.6 |   112M |  36 | 844 | 902 |1861 | 267k|  7 | 347 | 500 | 3.595078e-01 | 2.446175e+00 | 580.42%|  33.92%
 44.7s|  5500 |  1412 |633567 | 114.8 |   113M |  36 | 844 | 902 |1783 | 271k|  2 | 355 | 503 | 4.291494e-01 | 2.446175e+00 | 470.01%|  34.78%
 time | node  | left  |LP iter|LP it/n|mem/heur|mdpt |vars |cons |rows |cuts |sepa|confs|strbr|  dualbound   | primalbound  |  gap   | compl. 
 45.2s|  5600 |  1414 |640948 | 114.1 |   114M |  36 | 844 | 902 |1786 | 274k|  7 | 361 | 508 | 4.352378e-01 | 2.446175e+00 | 462.03%|  35.30%
 45.8s|  5700 |  1434 |650076 | 113.7 |   114M |  36 | 844 | 902 |1815 | 278k|  2 | 372 | 509 | 4.412127e-01 | 2.446175e+00 | 454.42%|  35.65%
 46.3s|  5800 |  1432 |656647 | 112.9 |   114M |  36 | 844 | 902 |1786 | 281k|  2 | 382 | 514 | 4.412258e-01 | 2.446175e+00 | 454.40%|  36.47%
 46.8s|  5900 |  1436 |662659 | 112.0 |   114M |  36 | 844 | 902 |1946 | 284k|  0 | 388 | 518 | 4.479755e-01 | 2.446175e+00 | 446.05%|  37.05%
 47.4s|  6000 |  1450 |671406 | 111.6 |   118M |  36 | 844 | 902 |1747 | 287k|  1 | 398 | 520 | 5.361582e-01 | 2.446175e+00 | 356.24%|  38.09%
 47.9s|  6100 |  1448 |677966 | 110.8 |   119M |  36 | 844 | 902 |1802 | 290k|  2 | 403 | 520 | 5.520427e-01 | 2.446175e+00 | 343.11%|  39.24%
 48.4s|  6200 |  1452 |684521 | 110.1 |   119M |  36 | 844 | 902 |1579 | 293k|  0 | 409 | 525 | 5.520427e-01 | 2.446175e+00 | 343.11%|  39.84%
 49.0s|  6300 |  1450 |694037 | 109.9 |   119M |  36 | 844 | 902 |1732 | 296k|  0 | 418 | 535 | 5.695090e-01 | 2.446175e+00 | 329.52%|  40.97%
 49.5s|  6400 |  1446 |699187 | 108.9 |   119M |  36 | 844 | 902 |1875 | 299k|  0 | 426 | 540 | 5.695090e-01 | 2.446175e+00 | 329.52%|  41.61%
 49.9s|  6500 |  1440 |704973 | 108.2 |   119M |  36 | 844 | 902 |1767 | 301k|  4 | 432 | 544 | 5.695131e-01 | 2.446175e+00 | 329.52%|  43.56%
 50.4s|  6600 |  1436 |712411 | 107.6 |   120M |  36 | 844 | 902 |1688 | 304k|  2 | 445 | 546 | 5.803171e-01 | 2.446175e+00 | 321.52%|  44.06%
 50.9s|  6700 |  1442 |719049 | 107.0 |   120M |  36 | 844 | 902 |1855 | 306k|  0 | 452 | 549 | 5.889348e-01 | 2.446175e+00 | 315.36%|  44.28%
 51.4s|  6800 |  1450 |726380 | 106.5 |   121M |  36 | 844 | 902 |1885 | 309k|  0 | 456 | 555 | 6.184858e-01 | 2.446175e+00 | 295.51%|  44.85%
 52.0s|  6900 |  1450 |734403 | 106.2 |   121M |  36 | 844 | 902 |1660 | 313k|  2 | 463 | 561 | 6.735070e-01 | 2.446175e+00 | 263.20%|  45.74%
 52.5s|  7000 |  1440 |740276 | 105.5 |   121M |  36 | 844 | 902 |1792 | 315k|  0 | 475 | 567 | 6.735211e-01 | 2.446175e+00 | 263.19%|  46.82%
 time | node  | left  |LP iter|LP it/n|mem/heur|mdpt |vars |cons |rows |cuts |sepa|confs|strbr|  dualbound   | primalbound  |  gap   | compl. 
 53.0s|  7100 |  1432 |746554 | 104.9 |   121M |  36 | 844 | 902 |1737 | 317k|  2 | 485 | 573 | 6.735211e-01 | 2.446175e+00 | 263.19%|  47.39%
 53.6s|  7200 |  1446 |755868 | 104.7 |   122M |  36 | 844 | 902 |1942 | 321k|  5 | 489 | 574 | 6.735242e-01 | 2.446175e+00 | 263.19%|  48.12%
 54.0s|  7300 |  1442 |762612 | 104.2 |   122M |  36 | 844 | 902 |1853 | 324k|  0 | 498 | 578 | 6.735245e-01 | 2.446175e+00 | 263.19%|  48.55%
 54.5s|  7400 |  1434 |769158 | 103.7 |   122M |  36 | 844 | 902 |1690 | 327k|  0 | 509 | 586 | 6.792759e-01 | 2.446175e+00 | 260.12%|  49.00%
 55.0s|  7500 |  1428 |775906 | 103.2 |   122M |  36 | 844 | 902 |1763 | 330k|  1 | 524 | 591 | 6.880274e-01 | 2.446175e+00 | 255.53%|  49.79%
 55.6s|  7600 |  1430 |782810 | 102.7 |   122M |  36 | 844 | 902 |1911 | 333k|  1 | 530 | 598 | 6.880275e-01 | 2.446175e+00 | 255.53%|  50.08%
 56.1s|  7700 |  1430 |788299 | 102.1 |   122M |  36 | 844 | 902 |1791 | 335k|  0 | 538 | 602 | 6.880275e-01 | 2.446175e+00 | 255.53%|  50.31%
 56.6s|  7800 |  1428 |793988 | 101.5 |   122M |  36 | 844 | 902 |1805 | 338k|  2 | 545 | 603 | 6.954193e-01 | 2.446175e+00 | 251.76%|  50.69%
 57.1s|  7900 |  1416 |799802 | 101.0 |   122M |  36 | 844 | 902 |1727 | 340k|  3 | 559 | 617 | 7.118665e-01 | 2.446175e+00 | 243.63%|  51.38%
 57.6s|  8000 |  1412 |806111 | 100.5 |   122M |  36 | 844 | 902 |1898 | 343k|  6 | 564 | 623 | 7.449227e-01 | 2.446175e+00 | 228.38%|  52.00%
 58.1s|  8100 |  1414 |814051 | 100.3 |   124M |  36 | 844 | 902 |1687 | 346k|  0 | 571 | 627 | 7.449293e-01 | 2.446175e+00 | 228.38%|  52.37%
 58.6s|  8200 |  1416 |821629 | 100.0 |   125M |  36 | 844 | 902 |1813 | 349k|  2 | 578 | 629 | 7.449332e-01 | 2.446175e+00 | 228.38%|  52.95%
 59.1s|  8300 |  1410 |828479 |  99.6 |   126M |  36 | 844 | 902 |1812 | 352k|  2 | 584 | 632 | 7.610315e-01 | 2.446175e+00 | 221.43%|  53.40%
 59.6s|  8400 |  1402 |835386 |  99.2 |   126M |  36 | 844 | 902 |1870 | 355k|  0 | 587 | 635 | 7.969887e-01 | 2.446175e+00 | 206.93%|  53.90%
 60.1s|  8500 |  1398 |841617 |  98.8 |   126M |  36 | 844 | 902 |1965 | 357k|  6 | 593 | 641 | 8.097693e-01 | 2.446175e+00 | 202.08%|  54.27%
 time | node  | left  |LP iter|LP it/n|mem/heur|mdpt |vars |cons |rows |cuts |sepa|confs|strbr|  dualbound   | primalbound  |  gap   | compl. 
 60.5s|  8600 |  1392 |846615 |  98.2 |   126M |  36 | 844 | 902 |1652 | 359k|  2 | 595 | 641 | 8.097693e-01 | 2.446175e+00 | 202.08%|  55.05%
 60.9s|  8700 |  1386 |851191 |  97.6 |   126M |  36 | 844 | 902 |1778 | 361k|  2 | 600 | 644 | 8.097693e-01 | 2.446175e+00 | 202.08%|  55.35%
 61.5s|  8800 |  1388 |861479 |  97.7 |   129M |  36 | 844 | 902 |1709 | 365k|  2 | 608 | 645 | 8.115691e-01 | 2.446175e+00 | 201.41%|  55.78%
 62.0s|  8900 |  1388 |869170 |  97.4 |   129M |  36 | 844 | 902 |1841 | 368k|  0 | 616 | 650 | 8.313971e-01 | 2.446175e+00 | 194.22%|  56.43%
 62.4s|  9000 |  1374 |873526 |  96.8 |   129M |  36 | 844 | 902 |1791 | 370k|  2 | 622 | 655 | 8.677234e-01 | 2.446175e+00 | 181.91%|  57.09%
 62.9s|  9100 |  1366 |879055 |  96.4 |   129M |  36 | 844 | 902 |1832 | 371k|  1 | 629 | 657 | 8.975324e-01 | 2.446175e+00 | 172.54%|  57.37%
 63.3s|  9200 |  1362 |886048 |  96.1 |   129M |  36 | 844 | 902 |1891 | 374k| 10 | 631 | 662 | 9.102800e-01 | 2.446175e+00 | 168.73%|  57.79%
 63.8s|  9300 |  1344 |891359 |  95.6 |   129M |  36 | 844 | 902 |1751 | 376k|  2 | 636 | 664 | 9.488458e-01 | 2.446175e+00 | 157.81%|  58.58%
 64.2s|  9400 |  1340 |896511 |  95.2 |   129M |  36 | 844 | 902 |1663 | 378k|  2 | 641 | 665 | 1.022222e+00 | 2.446175e+00 | 139.30%|  59.08%
 64.6s|  9500 |  1326 |901162 |  94.7 |   129M |  36 | 844 | 902 |1916 | 380k|  0 | 641 | 666 | 1.024982e+00 | 2.446175e+00 | 138.66%|  59.62%
 65.0s|  9600 |  1324 |905797 |  94.1 |   129M |  36 | 844 | 902 |1844 | 382k|  2 | 645 | 667 | 1.063541e+00 | 2.446175e+00 | 130.00%|  59.97%
 65.4s|  9700 |  1314 |911405 |  93.8 |   129M |  36 | 844 | 902 |1703 | 384k|  0 | 650 | 668 | 1.069453e+00 | 2.446175e+00 | 128.73%|  60.30%
 66.0s|  9800 |  1318 |918484 |  93.5 |   129M |  36 | 844 | 902 |1898 | 387k|  8 | 652 | 670 | 1.069453e+00 | 2.446175e+00 | 128.73%|  60.38%
 66.3s|  9900 |  1310 |923144 |  93.0 |   129M |  36 | 844 | 902 |1752 | 388k|  2 | 657 | 674 | 1.082039e+00 | 2.446175e+00 | 126.07%|  60.63%
 66.8s| 10000 |  1316 |930381 |  92.8 |   129M |  36 | 844 | 902 |1877 | 390k|  2 | 662 | 675 | 1.082069e+00 | 2.446175e+00 | 126.06%|  60.68%
 time | node  | left  |LP iter|LP it/n|mem/heur|mdpt |vars |cons |rows |cuts |sepa|confs|strbr|  dualbound   | primalbound  |  gap   | compl. 
 67.2s| 10100 |  1306 |935460 |  92.4 |   129M |  36 | 844 | 902 |1807 | 392k|  0 | 671 | 680 | 1.086237e+00 | 2.446175e+00 | 125.20%|  60.87%
 67.6s| 10200 |  1306 |939656 |  91.9 |   129M |  36 | 844 | 902 |1830 | 394k|  1 | 675 | 681 | 1.119737e+00 | 2.446175e+00 | 118.46%|  61.19%
 68.1s| 10300 |  1286 |946259 |  91.7 |   129M |  36 | 844 | 902 |1770 | 396k|  0 | 682 | 686 | 1.146403e+00 | 2.446175e+00 | 113.38%|  61.85%
 68.6s| 10400 |  1286 |953054 |  91.4 |   129M |  36 | 844 | 902 |1825 | 399k|  0 | 684 | 686 | 1.165363e+00 | 2.446175e+00 | 109.91%|  62.31%
 69.0s| 10500 |  1292 |958766 |  91.1 |   129M |  36 | 844 | 902 |1807 | 401k|  1 | 690 | 688 | 1.165364e+00 | 2.446175e+00 | 109.91%|  62.51%
 69.5s| 10600 |  1288 |965274 |  90.9 |   129M |  36 | 844 | 902 |1787 | 404k|  0 | 695 | 691 | 1.165377e+00 | 2.446175e+00 | 109.90%|  62.85%
 70.1s| 10700 |  1286 |972753 |  90.7 |   129M |  36 | 844 | 902 |1831 | 406k|  2 | 705 | 705 | 1.165652e+00 | 2.446175e+00 | 109.85%|  63.45%
 70.5s| 10800 |  1282 |979448 |  90.5 |   129M |  36 | 844 | 902 |1833 | 409k|  0 | 711 | 705 | 1.173888e+00 | 2.446175e+00 | 108.38%|  63.77%
 71.0s| 10900 |  1278 |986331 |  90.3 |   129M |  36 | 844 | 902 |1762 | 411k|  0 | 717 | 706 | 1.175079e+00 | 2.446175e+00 | 108.17%|  64.21%
 71.5s| 11000 |  1274 |992796 |  90.1 |   129M |  36 | 844 | 902 |1820 | 414k|  0 | 720 | 706 | 1.223001e+00 | 2.446175e+00 | 100.01%|  64.46%
 72.1s| 11100 |  1272 |999966 |  89.9 |   132M |  36 | 844 | 902 |1791 | 416k|  1 | 726 | 710 | 1.223058e+00 | 2.446175e+00 | 100.00%|  64.69%
 72.6s| 11200 |  1280 |  1007k|  89.7 |   132M |  36 | 844 | 902 |1813 | 420k|  0 | 729 | 713 | 1.223107e+00 | 2.446175e+00 | 100.00%|  64.86%
 73.0s| 11300 |  1278 |  1010k|  89.3 |   132M |  36 | 844 | 902 |1846 | 422k|  0 | 734 | 714 | 1.224279e+00 | 2.446175e+00 |  99.81%|  64.92%
 73.4s| 11400 |  1288 |  1017k|  89.1 |   132M |  36 | 844 | 902 |1794 | 424k|  1 | 739 | 715 | 1.224343e+00 | 2.446175e+00 |  99.79%|  65.01%
 74.0s| 11500 |  1288 |  1024k|  88.9 |   132M |  36 | 844 | 902 |1844 | 427k|  2 | 741 | 717 | 1.224343e+00 | 2.446175e+00 |  99.79%|  65.11%
 time | node  | left  |LP iter|LP it/n|mem/heur|mdpt |vars |cons |rows |cuts |sepa|confs|strbr|  dualbound   | primalbound  |  gap   | compl. 
 74.5s| 11600 |  1282 |  1032k|  88.8 |   134M |  36 | 844 | 902 |1870 | 429k|  0 | 748 | 720 | 1.224343e+00 | 2.446175e+00 |  99.79%|  65.34%
 74.9s| 11700 |  1274 |  1037k|  88.5 |   134M |  36 | 844 | 902 |1779 | 431k|  0 | 754 | 720 | 1.224367e+00 | 2.446175e+00 |  99.79%|  65.68%
 75.4s| 11800 |  1268 |  1043k|  88.3 |   134M |  36 | 844 | 902 |1731 | 434k|  0 | 761 | 720 | 1.224372e+00 | 2.446175e+00 |  99.79%|  65.82%
 75.9s| 11900 |  1260 |  1050k|  88.2 |   135M |  36 | 844 | 902 |1760 | 437k|  2 | 765 | 723 | 1.224382e+00 | 2.446175e+00 |  99.79%|  66.18%
 76.4s| 12000 |  1252 |  1058k|  88.0 |   135M |  36 | 844 | 902 |1706 | 439k|  2 | 770 | 725 | 1.224396e+00 | 2.446175e+00 |  99.79%|  66.55%
 76.8s| 12100 |  1230 |  1062k|  87.7 |   135M |  36 | 844 | 902 |1853 | 440k|  2 | 776 | 725 | 1.271228e+00 | 2.446175e+00 |  92.43%|  67.52%
 77.2s| 12200 |  1212 |  1067k|  87.3 |   135M |  36 | 844 | 902 |1685 | 442k|  2 | 783 | 726 | 1.271858e+00 | 2.446175e+00 |  92.33%|  68.01%
 77.6s| 12300 |  1192 |  1072k|  87.0 |   135M |  36 | 844 | 902 |1853 | 444k|  1 | 787 | 727 | 1.281131e+00 | 2.446175e+00 |  90.94%|  68.84%
 78.0s| 12400 |  1172 |  1078k|  86.8 |   135M |  36 | 844 | 902 |1738 | 446k|  2 | 794 | 730 | 1.335756e+00 | 2.446175e+00 |  83.13%|  69.64%
 78.6s| 12500 |  1176 |  1086k|  86.8 |   135M |  36 | 844 | 902 |1886 | 449k|  3 | 799 | 730 | 1.335787e+00 | 2.446175e+00 |  83.13%|  69.93%
 79.0s| 12600 |  1168 |  1093k|  86.6 |   135M |  36 | 844 | 902 |1744 | 451k|  2 | 805 | 732 | 1.335794e+00 | 2.446175e+00 |  83.13%|  70.77%
 79.4s| 12700 |  1162 |  1098k|  86.3 |   135M |  36 | 844 | 902 |1904 | 453k|  2 | 807 | 736 | 1.335833e+00 | 2.446175e+00 |  83.12%|  70.98%
 79.8s| 12800 |  1152 |  1102k|  86.0 |   135M |  36 | 844 | 902 |1700 | 455k|  3 | 809 | 738 | 1.335833e+00 | 2.446175e+00 |  83.12%|  71.12%
 80.2s| 12900 |  1142 |  1107k|  85.7 |   135M |  36 | 844 | 902 |1843 | 457k|  2 | 814 | 740 | 1.335833e+00 | 2.446175e+00 |  83.12%|  71.45%
 80.7s| 13000 |  1134 |  1113k|  85.5 |   135M |  36 | 844 | 902 |1630 | 459k|  0 | 819 | 741 | 1.368291e+00 | 2.446175e+00 |  78.78%|  71.74%
 time | node  | left  |LP iter|LP it/n|mem/heur|mdpt |vars |cons |rows |cuts |sepa|confs|strbr|  dualbound   | primalbound  |  gap   | compl. 
 81.1s| 13100 |  1122 |  1118k|  85.2 |   135M |  36 | 844 | 902 |1803 | 461k|  5 | 825 | 741 | 1.368312e+00 | 2.446175e+00 |  78.77%|  72.31%
 81.6s| 13200 |  1106 |  1125k|  85.1 |   136M |  36 | 844 | 902 |2258 | 464k|  2 | 835 | 745 | 1.368313e+00 | 2.446175e+00 |  78.77%|  72.84%
 82.1s| 13300 |  1094 |  1130k|  84.9 |   136M |  36 | 844 | 902 |1754 | 466k|  0 | 846 | 748 | 1.374875e+00 | 2.446175e+00 |  77.92%|  73.20%
 82.5s| 13400 |  1094 |  1136k|  84.6 |   136M |  36 | 844 | 902 |1848 | 468k|  0 | 849 | 748 | 1.374887e+00 | 2.446175e+00 |  77.92%|  73.57%
 82.9s| 13500 |  1078 |  1141k|  84.4 |   136M |  36 | 844 | 902 |1883 | 470k|  0 | 854 | 748 | 1.375734e+00 | 2.446175e+00 |  77.81%|  73.85%
 83.4s| 13600 |  1068 |  1147k|  84.2 |   136M |  36 | 844 | 902 |1874 | 472k|  3 | 859 | 749 | 1.389324e+00 | 2.446175e+00 |  76.07%|  74.36%
 83.8s| 13700 |  1064 |  1153k|  84.0 |   136M |  36 | 844 | 902 |1789 | 475k|  4 | 865 | 751 | 1.389340e+00 | 2.446175e+00 |  76.07%|  75.15%
 84.2s| 13800 |  1050 |  1159k|  83.8 |   136M |  36 | 844 | 902 |1716 | 477k|  0 | 871 | 753 | 1.389771e+00 | 2.446175e+00 |  76.01%|  75.76%
 84.7s| 13900 |  1040 |  1164k|  83.6 |   136M |  36 | 844 | 902 |1756 | 479k|  4 | 875 | 754 | 1.397231e+00 | 2.446175e+00 |  75.07%|  76.28%
 85.0s| 14000 |  1018 |  1169k|  83.4 |   136M |  36 | 844 | 902 |1699 | 480k|  0 | 881 | 757 | 1.426758e+00 | 2.446175e+00 |  71.45%|  76.81%
 85.4s| 14100 |  1006 |  1173k|  83.1 |   136M |  36 | 844 | 902 |2012 | 482k|  2 | 888 | 760 | 1.426758e+00 | 2.446175e+00 |  71.45%|  77.24%
 85.9s| 14200 |   990 |  1178k|  82.9 |   136M |  36 | 844 | 902 |1773 | 484k|  0 | 893 | 763 | 1.449585e+00 | 2.446175e+00 |  68.75%|  77.66%
 86.3s| 14300 |   972 |  1184k|  82.7 |   136M |  36 | 844 | 902 |1763 | 486k|  1 | 901 | 764 | 1.469089e+00 | 2.446175e+00 |  66.51%|  78.28%
 86.7s| 14400 |   952 |  1190k|  82.5 |   136M |  36 | 844 | 902 |1855 | 489k|  0 | 907 | 768 | 1.476058e+00 | 2.446175e+00 |  65.72%|  78.98%
 87.2s| 14500 |   940 |  1196k|  82.4 |   136M |  36 | 844 | 902 |1844 | 491k|  0 | 908 | 770 | 1.486157e+00 | 2.446175e+00 |  64.60%|  79.23%
 time | node  | left  |LP iter|LP it/n|mem/heur|mdpt |vars |cons |rows |cuts |sepa|confs|strbr|  dualbound   | primalbound  |  gap   | compl. 
 87.6s| 14600 |   906 |  1201k|  82.2 |   136M |  36 | 844 | 902 |1834 | 492k|  1 | 919 | 772 | 1.545343e+00 | 2.446175e+00 |  58.29%|  80.05%
 87.9s| 14700 |   882 |  1205k|  81.9 |   136M |  36 | 844 | 902 |1786 | 493k|  1 | 926 | 779 | 1.572207e+00 | 2.446175e+00 |  55.59%|  80.46%
 88.3s| 14800 |   862 |  1209k|  81.6 |   136M |  36 | 844 | 902 |1640 | 495k|  2 | 927 | 781 | 1.572243e+00 | 2.446175e+00 |  55.59%|  80.84%
 88.7s| 14900 |   838 |  1214k|  81.4 |   136M |  36 | 844 | 902 |1730 | 497k|  0 | 936 | 783 | 1.578992e+00 | 2.446175e+00 |  54.92%|  81.37%
 89.2s| 15000 |   826 |  1221k|  81.3 |   136M |  36 | 844 | 902 |1669 | 499k|  2 | 943 | 783 | 1.617928e+00 | 2.446175e+00 |  51.19%|  82.25%
 89.6s| 15100 |   816 |  1227k|  81.2 |   136M |  36 | 844 | 902 |1891 | 501k|  2 | 945 | 784 | 1.618440e+00 | 2.446175e+00 |  51.14%|  82.52%
 90.0s| 15200 |   808 |  1232k|  81.0 |   136M |  36 | 844 | 902 |1894 | 503k|  3 | 949 | 786 | 1.630286e+00 | 2.446175e+00 |  50.05%|  82.90%
 90.4s| 15300 |   788 |  1238k|  80.8 |   136M |  36 | 844 | 902 |1719 | 505k|  0 | 953 | 790 | 1.647560e+00 | 2.446175e+00 |  48.47%|  83.49%
 90.9s| 15400 |   768 |  1244k|  80.7 |   136M |  36 | 844 | 902 |1741 | 507k|  0 | 965 | 795 | 1.664067e+00 | 2.446175e+00 |  47.00%|  83.78%
 91.3s| 15500 |   736 |  1248k|  80.4 |   136M |  36 | 844 | 902 |1761 | 509k|  0 | 972 | 796 | 1.689220e+00 | 2.446175e+00 |  44.81%|  84.64%
 91.7s| 15600 |   718 |  1253k|  80.2 |   136M |  36 | 844 | 902 |1956 | 510k|  7 | 975 | 797 | 1.700262e+00 | 2.446175e+00 |  43.87%|  84.90%
 92.1s| 15700 |   690 |  1257k|  80.0 |   137M |  36 | 844 | 902 |1836 | 512k|  4 | 982 | 798 | 1.704072e+00 | 2.446175e+00 |  43.55%|  85.52%
 92.4s| 15800 |   652 |  1261k|  79.7 |   137M |  36 | 844 | 902 |1825 | 513k|  0 | 985 | 800 | 1.704072e+00 | 2.446175e+00 |  43.55%|  85.91%
 92.8s| 15900 |   628 |  1266k|  79.5 |   137M |  36 | 844 | 902 |1683 | 514k|  0 | 989 | 800 | 1.706901e+00 | 2.446175e+00 |  43.31%|  86.35%
 93.2s| 16000 |   600 |  1271k|  79.3 |   137M |  36 | 844 | 902 |1789 | 516k|  2 | 996 | 803 | 1.718124e+00 | 2.446175e+00 |  42.37%|  87.01%
 time | node  | left  |LP iter|LP it/n|mem/heur|mdpt |vars |cons |rows |cuts |sepa|confs|strbr|  dualbound   | primalbound  |  gap   | compl. 
 93.6s| 16100 |   588 |  1277k|  79.2 |   137M |  36 | 844 | 902 |1868 | 518k|  5 |1007 | 814 | 1.722834e+00 | 2.446175e+00 |  41.99%|  87.24%
 94.0s| 16200 |   580 |  1281k|  79.0 |   137M |  36 | 844 | 902 |1774 | 519k|  1 |1012 | 816 | 1.722834e+00 | 2.446175e+00 |  41.99%|  87.39%
 94.3s| 16300 |   566 |  1285k|  78.8 |   137M |  36 | 844 | 902 |1738 | 520k|  2 |1014 | 816 | 1.733852e+00 | 2.446175e+00 |  41.08%|  87.64%
 94.7s| 16400 |   538 |  1290k|  78.6 |   137M |  36 | 844 | 902 |2160 | 521k|  0 |1019 | 817 | 1.756603e+00 | 2.446175e+00 |  39.26%|  88.04%
 95.2s| 16500 |   524 |  1297k|  78.5 |   137M |  36 | 844 | 902 |2035 | 523k|  2 |1024 | 821 | 1.765754e+00 | 2.446175e+00 |  38.53%|  88.40%
 95.6s| 16600 |   508 |  1303k|  78.4 |   137M |  36 | 844 | 902 |1810 | 526k|  2 |1030 | 821 | 1.772330e+00 | 2.446175e+00 |  38.02%|  89.31%
 96.1s| 16700 |   476 |  1308k|  78.2 |   137M |  36 | 844 | 902 |1819 | 527k|  3 |1033 | 824 | 1.791338e+00 | 2.446175e+00 |  36.56%|  89.70%
 96.5s| 16800 |   454 |  1313k|  78.1 |   137M |  36 | 844 | 902 |1709 | 528k|  0 |1041 | 826 | 1.792561e+00 | 2.446175e+00 |  36.46%|  90.23%
 96.8s| 16900 |   436 |  1318k|  77.9 |   137M |  36 | 844 | 902 |1808 | 530k|  2 |1047 | 828 | 1.797020e+00 | 2.446175e+00 |  36.12%|  90.52%
 97.2s| 17000 |   408 |  1322k|  77.7 |   137M |  36 | 844 | 902 |1699 | 531k|  1 |1047 | 828 | 1.797020e+00 | 2.446175e+00 |  36.12%|  90.86%
 97.6s| 17100 |   388 |  1326k|  77.5 |   137M |  36 | 844 | 902 |1830 | 532k|  0 |1053 | 834 | 1.816821e+00 | 2.446175e+00 |  34.64%|  91.20%
 98.0s| 17200 |   362 |  1331k|  77.3 |   137M |  36 | 844 | 902 |1745 | 533k|  0 |1058 | 835 | 1.838754e+00 | 2.446175e+00 |  33.03%|  91.77%
 98.3s| 17300 |   328 |  1335k|  77.1 |   137M |  36 | 844 | 902 |2052 | 534k|  2 |1063 | 837 | 1.865910e+00 | 2.446175e+00 |  31.10%|  92.52%
 98.7s| 17400 |   302 |  1340k|  76.9 |   137M |  36 | 844 | 902 |1782 | 536k|  0 |1069 | 838 | 1.881108e+00 | 2.446175e+00 |  30.04%|  92.91%
 99.1s| 17500 |   278 |  1345k|  76.8 |   137M |  36 | 844 | 902 |1711 | 537k|  2 |1078 | 840 | 1.910112e+00 | 2.446175e+00 |  28.06%|  93.50%
 time | node  | left  |LP iter|LP it/n|mem/heur|mdpt |vars |cons |rows |cuts |sepa|confs|strbr|  dualbound   | primalbound  |  gap   | compl. 
 99.5s| 17600 |   244 |  1351k|  76.7 |   138M |  36 | 844 | 902 |1726 | 539k|  1 |1085 | 841 | 1.913939e+00 | 2.446175e+00 |  27.81%|  94.03%
 99.9s| 17700 |   226 |  1356k|  76.5 |   138M |  36 | 844 | 902 |1703 | 540k|  0 |1090 | 845 | 1.938625e+00 | 2.446175e+00 |  26.18%|  94.28%
  100s| 17800 |   208 |  1361k|  76.4 |   138M |  36 | 844 | 902 |1731 | 542k|  0 |1094 | 845 | 1.938627e+00 | 2.446175e+00 |  26.18%|  94.60%
  101s| 17900 |   180 |  1366k|  76.2 |   138M |  36 | 844 | 902 |1715 | 544k|  4 |1101 | 846 | 1.981232e+00 | 2.446175e+00 |  23.47%|  95.21%
  101s| 18000 |   154 |  1371k|  76.1 |   138M |  36 | 844 | 902 |1749 | 545k|  2 |1106 | 847 | 1.992492e+00 | 2.446175e+00 |  22.77%|  95.74%
  101s| 18100 |   114 |  1376k|  75.9 |   138M |  36 | 844 | 902 |1879 | 546k|  0 |1110 | 847 | 2.057500e+00 | 2.446175e+00 |  18.89%|  96.48%
  102s| 18200 |    74 |  1381k|  75.8 |   138M |  36 | 844 | 902 |1621 | 547k|  0 |1114 | 848 | 2.076398e+00 | 2.446175e+00 |  17.81%|  97.65%
  102s| 18300 |    38 |  1387k|  75.7 |   140M |  36 | 844 | 902 |1734 | 549k|  1 |1120 | 852 | 2.106811e+00 | 2.446175e+00 |  16.11%|  98.40%
  103s| 18400 |     2 |  1393k|  75.6 |   141M |  36 | 844 | 837 |1833 | 550k|  0 |1123 | 855 | 2.334361e+00 | 2.446175e+00 |   4.79%|  99.98%

SCIP Status        : problem is solved [optimal solution found]
Solving Time (sec) : 102.72
Solving Nodes      : 18402
Primal Bound       : +2.44617517562731e+00 (17 solutions)
Dual Bound         : +2.44617517562731e+00
Gap                : 0.00 %


--- Reading solution for model GAMS_MODEL
***
*** Solver did not provide marginals for model GAMS_MODEL
***
--- Executing after solve: elapsed 0:01:42.807
--- model.gms(3028) 3 Mb
--- model.gms(4434) 5 Mb
--- Putfile results /local/scratch/a/sgusev/repos/k_means/data/gams_scip_gdp.hull_exact/no_mode/2026-02-16_01-39-08/original/results.dat
--- Putfile statresults /local/scratch/a/sgusev/repos/k_means/data/gams_scip_gdp.hull_exact/no_mode/2026-02-16_01-39-08/original/resultsstat.dat
*** Status: Normal completion
--- Job model.gms Stop 02/16/26 01:40:51 elapsed 0:01:42.810
Original problem solved. Time taken: 103.38741970062256 seconds
Original objective value: 2.446175175627308
